 vasp.5.4.4.18Apr17-6-g9f103f2a35 (build Jun 04 2020 09:47:53) complex

 executed on             LinuxIFC date 2023.04.25  15:52:48

 INCAR:
 POTCAR:    PAW_PBE Pt 04Feb2005
 POTCAR:    PAW_PBE H 15Jun2001
 POTCAR:    PAW_PBE C 08Apr2002

 POTCAR:    PAW_PBE Pt 04Feb2005
   VRHFIN =Pt: s1d9

   TITEL  = PAW_PBE Pt 04Feb2005
   POMASS =  195.080; ZVAL   =   10.000    mass and valenz
   ENMAX  =  230.283; ENMIN  =  172.712 eV

 POTCAR:    PAW_PBE H 15Jun2001
   VRHFIN =H: ultrasoft test

   TITEL  = PAW_PBE H 15Jun2001
   POMASS =    1.000; ZVAL   =    1.000    mass and valenz
   ENMAX  =  250.000; ENMIN  =  200.000 eV

 POTCAR:    PAW_PBE C 08Apr2002
   VRHFIN =C: s2p2

   TITEL  = PAW_PBE C 08Apr2002
   POMASS =   12.011; ZVAL   =    4.000    mass and valenz
   ENMAX  =  400.000; ENMIN  =  300.000 eV

 Optimization of the real space projectors (new method)

 maximal supplied QI-value         = 14.36
 optimisation between [QCUT,QGAM] = [ 10.20, 20.39] = [ 29.12,116.47] Ry
 Optimized for a Real-space Cutoff    1.51 Angstroem

   l    n(q)    QCUT    max X(q) W(low)/X(q) W(high)/X(q)  e(spline)
   2      8    10.197    66.195    0.45E-03    0.45E-03    0.14E-06
   2      8    10.197    64.643    0.46E-03    0.46E-03    0.14E-06
   0      9    10.197    95.520    0.15E-03    0.11E-03    0.54E-07
   0      9    10.197    63.403    0.15E-03    0.11E-03    0.52E-07
   1      9    10.197    19.961    0.13E-03    0.17E-03    0.77E-07
   1      9    10.197    13.289    0.10E-03    0.15E-03    0.67E-07
 Optimization of the real space projectors (new method)

[...]

   l    n(q)    QCUT    max X(q) W(low)/X(q) W(high)/X(q)  e(spline)
   0      8     9.919    19.460    0.50E-03    0.23E-03    0.29E-06
   0      8     9.919    12.209    0.48E-03    0.23E-03    0.28E-06
   1      7     9.919     4.655    0.17E-03    0.75E-03    0.30E-06
 Optimization of the real space projectors (new method)

 maximal supplied QI-value         = 25.13
 optimisation between [QCUT,QGAM] = [ 10.05, 20.36] = [ 28.30,116.06] Ry
 Optimized for a Real-space Cutoff    1.30 Angstroem

   l    n(q)    QCUT    max X(q) W(low)/X(q) W(high)/X(q)  e(spline)
   0      8    10.053   115.676    0.49E-03    0.72E-03    0.18E-06
   0      8    10.053    87.132    0.49E-03    0.71E-03    0.18E-06
   1      7    10.053     4.429    0.32E-03    0.31E-03    0.18E-06
   1      7    10.053     2.733    0.23E-03    0.19E-03    0.20E-06

  PAW_PBE Pt 04Feb2005                  :
  PAW_PBE H 15Jun2001                   :
  PAW_PBE C 08Apr2002                   :

 POSCAR: Pt H C : CH4/Pt(110)-2x1 (1x3 supercell)
  positions in cartesian coordinates
 exchange correlation table for  LEXCH =       47
   RHO(1)=    0.500       N(1)  =     2000
   RHO(2)=  100.500       N(2)  =     4000

 VTST: version 3.2, (02/03/18)

 CHAIN: initializing optimizer

 OPT: Using VASP Dynamics algorithm
 CHAIN: Read ICHAIN            0

 POSCAR: Pt H C : CH4/Pt(110)-2x1 (1x3 supercell)
  positions in cartesian coordinates

 ion  position               nearest neighbor table
   1  0.000  0.000  0.000-  13 2.83  10 2.84   9 2.84   5 2.84  12 2.84  11 2.84   3 2.84
   2  0.500  0.000  0.000-   9 2.84  10 2.84   6 2.84  11 2.84  12 2.84   4 2.84  14 2.86
   3  0.000  0.333  0.000-  15 2.83   8 2.84   7 2.84  10 2.84   9 2.84   5 2.84   1 2.84
   4  0.500  0.333  0.000-   7 2.84   8 2.84   9 2.84  10 2.84   6 2.84   2 2.84  16 2.86
   5  0.000  0.667  0.000-  17 2.83  12 2.84  11 2.84   1 2.84   8 2.84   7 2.84   3 2.84
   6  0.500  0.667  0.000-  11 2.84  12 2.84   2 2.84   7 2.84   8 2.84   4 2.84  18 2.86
   7  0.250  0.500  0.045-  15 2.84  17 2.84   3 2.84   4 2.84   5 2.84   6 2.84  11 2.84   9 2.84
                            16 2.85  18 2.85  21 2.87
   8  0.750  0.500  0.045-  15 2.84  17 2.84   3 2.84   4 2.84   5 2.84   6 2.84  12 2.84  10 2.84
                            16 2.85  18 2.85  22 2.87
   9  0.250  0.167  0.045-  15 2.84  13 2.84   1 2.84   2 2.84  11 2.84   4 2.84   3 2.84   7 2.84
                            16 2.85  14 2.85  19 2.87
  10  0.750  0.167  0.045-  15 2.84  13 2.84   1 2.84   2 2.84  12 2.84   4 2.84   3 2.84   8 2.84
                            16 2.85  14 2.85  20 2.87
  11  0.250  0.833  0.045-  17 2.84  13 2.84   5 2.84   6 2.84   9 2.84   2 2.84   1 2.84   7 2.84
                            18 2.85  14 2.85  23 2.87
  12  0.750  0.833  0.045-  17 2.84  13 2.84   5 2.84   6 2.84  10 2.84   2 2.84   1 2.84   8 2.84
                            18 2.85  14 2.85  24 2.87
  13  1.000  1.000  0.090-   1 2.83  12 2.84  10 2.84  11 2.84   9 2.84  17 2.84  15 2.84  19 2.84
                            20 2.84  23 2.84  24 2.84  30 2.88
  14  0.500  1.000  0.091-  26 2.80  18 2.84  16 2.84  11 2.85   9 2.85  12 2.85  10 2.85   2 2.86
                            20 2.87  19 2.87  24 2.87  23 2.87
  15  1.000  0.333  0.090-   3 2.83  10 2.84   9 2.84   8 2.84   7 2.84  13 2.84  17 2.84  21 2.84
                            22 2.84  19 2.84  20 2.84  29 2.88
  16  0.500  0.333  0.091-  25 2.80  14 2.84  18 2.84   9 2.85  10 2.85   7 2.85   8 2.85   4 2.86
                            22 2.87  21 2.87  20 2.87  19 2.87
  17  1.000  0.667  0.090-   5 2.83  12 2.84  11 2.84   8 2.84   7 2.84  13 2.84  15 2.84  21 2.84
                            22 2.84  23 2.84  24 2.84  28 2.88
  18  0.500  0.667  0.091-  27 2.80  14 2.84  16 2.84  11 2.85  12 2.85   7 2.85   8 2.85   6 2.86
                            22 2.87  21 2.87  24 2.87  23 2.87
  19  0.247  0.167  0.137-  29 2.82  30 2.82  25 2.84  26 2.84  23 2.84  21 2.84  13 2.84  15 2.84
                            35 2.85  14 2.87  16 2.87   9 2.87
  20  0.753  0.167  0.137-  29 2.82  30 2.82  25 2.84  26 2.84  24 2.84  22 2.84  13 2.84  15 2.84
                            36 2.85  14 2.87  16 2.87  10 2.87
  21  0.247  0.500  0.137-  29 2.82  28 2.82  27 2.84  25 2.84  23 2.84  19 2.84  17 2.84  15 2.84
                            33 2.85  18 2.87  16 2.87   7 2.87
  22  0.753  0.500  0.137-  29 2.82  28 2.82  25 2.84  27 2.84  24 2.84  20 2.84  17 2.84  15 2.84
                            34 2.85  18 2.87  16 2.87   8 2.87
  23  0.247  0.833  0.137-  28 2.82  30 2.82  27 2.84  26 2.84  19 2.84  21 2.84  13 2.84  17 2.84
                            31 2.85  14 2.87  18 2.87  11 2.87
  24  0.753  0.833  0.137-  28 2.82  30 2.82  27 2.84  26 2.84  20 2.84  22 2.84  13 2.84  17 2.84
                            32 2.85  14 2.87  18 2.87  12 2.87
  25  0.500  0.333  0.180-  37 2.73  16 2.80  19 2.84  20 2.84  21 2.84  22 2.84  26 2.84  27 2.84
                            33 2.93  34 2.93  36 2.93  35 2.93
  26  0.500  1.000  0.180-  38 2.73  14 2.80  23 2.84  19 2.84  24 2.84  20 2.84  25 2.84  27 2.84
                            36 2.93  35 2.93  31 2.93  32 2.93
  27  0.500  0.667  0.180-  39 2.73  18 2.80  23 2.84  24 2.84  21 2.84  22 2.84  26 2.84  25 2.84
                            33 2.93  34 2.93  31 2.93  32 2.93
  28  1.000  0.667  0.182-  34 2.79  33 2.79  32 2.79  31 2.79  24 2.82  23 2.82  22 2.82  21 2.82
                            30 2.84  29 2.84  17 2.88  40 3.04
  29  1.000  0.333  0.182-  33 2.79  34 2.79  36 2.79  35 2.79  20 2.82  19 2.82  22 2.82  21 2.82
                            30 2.84  28 2.84  15 2.88  41 3.04
  30  1.000  1.000  0.182-  36 2.79  35 2.79  32 2.79  31 2.79  24 2.82  23 2.82  20 2.82  19 2.82
                            28 2.84  29 2.84  13 2.88  42 3.04
  31  0.240  0.833  0.228-  30 2.79  28 2.79  39 2.81  38 2.81  33 2.84  35 2.84  47 2.85  23 2.85
                            40 2.89  42 2.89  26 2.93  27 2.93
  32  0.760  0.833  0.228-  30 2.79  28 2.79  39 2.81  38 2.81  34 2.84  36 2.84  48 2.85  24 2.85
                            40 2.89  42 2.89  26 2.93  27 2.93
  33  0.240  0.500  0.228-  28 2.79  29 2.79  37 2.81  39 2.81  35 2.84  31 2.84  45 2.85  21 2.85
                            41 2.89  40 2.89  27 2.93  25 2.93
  34  0.760  0.500  0.228-  28 2.79  29 2.79  37 2.81  39 2.81  32 2.84  36 2.84  46 2.85  22 2.85
                            41 2.89  40 2.89  27 2.93  25 2.93
  35  0.240  0.167  0.228-  30 2.79  29 2.79  37 2.81  38 2.81  33 2.84  31 2.84  43 2.85  19 2.85
                            41 2.89  42 2.89  26 2.93  25 2.93
  36  0.760  0.167  0.228-  30 2.79  29 2.79  37 2.81  38 2.81  34 2.84  32 2.84  44 2.85  20 2.85
                            41 2.89  42 2.89  26 2.93  25 2.93
  37  0.500  0.333  0.267-  25 2.73  50 2.75  36 2.81  35 2.81  34 2.81  33 2.81  38 2.84  39 2.84
                            45 2.96  46 2.96  44 2.96  43 2.96
  38  0.500  1.000  0.267-  26 2.73  49 2.75  31 2.81  32 2.81  35 2.81  36 2.81  39 2.84  37 2.84
                            44 2.96  43 2.96  48 2.96  47 2.96
  39  0.500  0.667  0.267-  27 2.73  51 2.75  31 2.81  32 2.81  34 2.81  33 2.81  38 2.84  37 2.84
                            45 2.96  46 2.96  48 2.96  47 2.96
  40  1.000  0.667  0.279-  46 2.73  47 2.73  48 2.73  45 2.73  42 2.84  41 2.84  32 2.89  31 2.89
                            34 2.89  33 2.89  28 3.04
  41  1.000  0.333  0.279-  46 2.73  45 2.73  43 2.73  44 2.73  42 2.84  40 2.84  35 2.89  36 2.89
                            34 2.89  33 2.89  29 3.04
  42  1.000  1.000  0.279-  47 2.73  48 2.73  43 2.73  44 2.73  40 2.84  41 2.84  32 2.89  31 2.89
                            35 2.89  36 2.89  30 3.04
  43  0.246  0.167  0.319-  42 2.73  41 2.73  50 2.74  49 2.74  47 2.84  45 2.84  35 2.85  38 2.96
                            37 2.96
  44  0.754  0.167  0.319-  42 2.73  41 2.73  49 2.74  50 2.74  48 2.84  46 2.84  36 2.85  38 2.96
                            37 2.96
  45  0.246  0.500  0.319-  40 2.73  41 2.73  50 2.74  51 2.74  43 2.84  47 2.84  33 2.85  39 2.96
                            37 2.96
  46  0.754  0.500  0.319-  40 2.73  41 2.73  50 2.74  51 2.74  48 2.84  44 2.84  34 2.85  39 2.96
                            37 2.96
  47  0.246  0.833  0.319-  42 2.73  40 2.73  51 2.74  49 2.74  43 2.84  45 2.84  31 2.85  38 2.96
                            39 2.96
  48  0.754  0.833  0.319-  42 2.73  40 2.73  51 2.74  49 2.74  44 2.84  46 2.84  32 2.85  38 2.96
                            39 2.96
  49  0.500  1.000  0.355-  48 2.74  44 2.74  47 2.74  43 2.74  38 2.75  51 2.84  50 2.84
  50  0.500  0.333  0.355-  43 2.74  44 2.74  45 2.74  46 2.74  37 2.75  51 2.84  49 2.84
  51  0.500  0.667  0.355-  47 2.74  48 2.74  45 2.74  46 2.74  39 2.75  50 2.84  49 2.84
  52  0.918  0.883  0.425-  56 0.95
  53  0.074  0.005  0.401-  56 1.00
  54  0.035  0.023  0.447-  56 0.94
  55  0.096  0.874  0.439-  56 1.07
  56  0.010  0.953  0.424-  54 0.94  52 0.95  53 1.00  55 1.07

  LATTYP: Found a simple orthorhombic cell.
 ALAT       =     8.0400000000
 B/A-ratio  =     1.0606601718
 C/A-ratio  =     3.9017757514

  Lattice vectors:

 A1 = (   8.0400000000,   0.0000000000,   0.0000000000)
 A2 = (   0.0000000000,   8.5277077811,   0.0000000000)
 A3 = (   0.0000000000,   0.0000000000,  31.3702770415)

Analysis of symmetry for initial positions (statically):
 Subroutine PRICEL returns:
 Original cell was already a primitive cell.

 Routine SETGRP: Setting up the symmetry group for a
 simple orthorhombic supercell.

[...]
     17      -5.4331      2.00000
     18      -5.4075      2.00000
     19      -5.3936      2.00000
     20      -5.3806      2.00000
     21      -5.2679      2.00000
     22      -5.2086      2.00000
     23      -5.1900      2.00000
     24      -5.1785      2.00000
     25      -5.1765      2.00000
     26      -5.1276      2.00000
     27      -5.1225      2.00000
     28      -5.0401      2.00000
     29      -5.0396      2.00000
     30      -5.0096      2.00000
     31      -4.9714      2.00000
     32      -4.9330      2.00000
     33      -4.9290      2.00000
     34      -4.9234      2.00000
     35      -4.9047      2.00000
     36      -4.9038      2.00000
     37      -4.8559      2.00000
     38      -4.8393      2.00000
     39      -4.7979      2.00000
     40      -4.7915      2.00000
     41      -4.7671      2.00000
     42      -4.7584      2.00000
     43      -4.7161      2.00000
     44      -4.6327      2.00000
     45      -4.6308      2.00000
     46      -4.6249      2.00000
     47      -4.5920      2.00000
     48      -4.4813      2.00000
     49      -4.4609      2.00000
     50      -4.4522      2.00000
     51      -4.4156      2.00000
     52      -4.3899      2.00000
     53      -4.3791      2.00000
     54      -4.3732      2.00000
     55      -4.3017      2.00000
     56      -4.2205      2.00000
     57      -4.2062      2.00000
     58      -4.1973      2.00000
     59      -4.1572      2.00000
     60      -4.1319      2.00000
[...]
    296       3.3320      0.00000
    297       3.5690      0.00000
    298       3.7154      0.00000
    299       3.7198      0.00000
    300       3.7678      0.00000
    301       3.9217      0.00000
    302       4.0104      0.00000
    303       4.0827      0.00000
    304       4.3140      0.00000
    305       4.3569      0.00000
    306       4.3661      0.00000
    307       4.4216      0.00000
    308       4.5321      0.00000
    309       4.8826      0.00000
    310       4.8977      0.00000

 soft charge-density along one line, spin component           1
         0         1         2         3         4         5         6         7         8         9
 total charge-density along one line

------------------------ aborting loop because EDIFF is reached ----------------------------------------

  FORCE on cell =-STRESS in cart. coord.  units (eV):
  Direction    XX          YY          ZZ          XY          YZ          ZX
  Alpha Z  1174.86337  1174.86337  1174.86337
  Ewald  323048.04411324286.53844************    30.15234    -5.78050   -20.92666
  Hartree332248.39199333002.72542************     5.52633    -2.49839   -17.45840
  E(xc)   -2319.98759 -2315.98833 -2322.89571     0.26265    -0.10063     0.02998
  Local  ************************671017.25194   -27.41960     8.03884    38.98344
  n-local   142.57662   165.70286   144.80675     0.05203    -0.24826    -0.08131
  augment  2709.82265  2681.34534  2743.03882    -0.11881    -0.02168    -0.00842
  Kinetic  7539.72389  7466.53724  7624.76547    -5.77454     3.15648    -0.98418
  Fock        0.00000     0.00000     0.00000     0.00000     0.00000     0.00000
  Total     -14.04425   -36.38944     1.04551     2.68040     2.54586    -0.44553
  in kB     -10.46170   -27.10686     0.77881     1.99666     1.89644    -0.33188

 VOLUME and BASIS-vectors are now :
  energy-cutoff  :      400.00
  volume of cell :     2150.83
      direct lattice vectors                 reciprocal lattice vectors
     8.040000000  0.000000000  0.000000000     0.124378109  0.000000000  0.000000000
     0.000000000  8.527707781  0.000000000     0.000000000  0.117264806  0.000000000
     0.000000000  0.000000000 31.370277041     0.000000000  0.000000000  0.031877309

  length of vectors
     8.040000000  8.527707781 31.370277041     0.124378109  0.117264806  0.031877309

 FORCES acting on ions
    electron-ion (+dipol)            ewald-force                    non-local-force                 convergence-correction
   0.807E-02 -.290E-01 0.352E+04   -.653E-03 0.312E-02 -.351E+04   -.379E-03 0.877E-03 -.255E+01   -.691E-02 0.257E-01 0.753E-01
   -.787E-02 0.242E-02 0.351E+04   0.120E-02 0.324E-02 -.351E+04   -.330E-03 0.941E-04 -.249E+01   0.692E-02 -.517E-02 0.489E-01
   0.665E-02 0.368E-01 0.352E+04   -.560E-03 0.680E-02 -.351E+04   0.972E-03 0.229E-02 -.253E+01   -.718E-02 -.451E-01 0.639E-01
   -.785E-02 0.115E-01 0.351E+04   0.111E-02 0.624E-02 -.351E+04   -.460E-03 -.249E-03 -.249E+01   0.720E-02 -.169E-01 0.332E-01
   0.756E-02 -.713E-02 0.352E+04   -.587E-03 -.104E-01 -.351E+04   0.638E-03 -.340E-02 -.253E+01   -.764E-02 0.194E-01 0.623E-01
   -.878E-02 -.135E-01 0.351E+04   0.114E-02 -.995E-02 -.351E+04   0.217E-03 0.235E-03 -.249E+01   0.764E-02 0.221E-01 0.471E-01
   -.627E+01 0.107E-01 0.271E+04   0.624E+01 -.658E-02 -.271E+04   0.608E-01 -.400E-03 0.112E+00   -.825E-02 -.398E-02 0.717E-01
   0.627E+01 0.995E-02 0.271E+04   -.625E+01 -.634E-02 -.271E+04   -.617E-01 -.683E-03 0.112E+00   0.821E-02 -.334E-02 0.723E-01
   -.623E+01 0.791E-02 0.271E+04   0.625E+01 0.219E-01 -.271E+04   0.587E-01 0.155E-02 0.111E+00   -.418E-01 -.302E-01 0.580E-01
   0.624E+01 0.794E-02 0.271E+04   -.625E+01 0.213E-01 -.271E+04   -.587E-01 0.138E-02 0.110E+00   0.418E-01 -.298E-01 0.579E-01
   -.627E+01 -.191E-01 0.271E+04   0.624E+01 -.148E-01 -.271E+04   0.561E-01 -.121E-02 0.107E+00   -.389E-02 0.342E-01 0.837E-01
   0.627E+01 -.185E-01 0.271E+04   -.625E+01 -.144E-01 -.271E+04   -.564E-01 -.942E-03 0.110E+00   0.381E-02 0.331E-01 0.841E-01
   0.153E-01 -.293E-01 0.174E+04   -.821E-02 0.302E-01 -.174E+04   -.246E-03 -.530E-03 0.410E-01   -.704E-02 -.436E-03 0.367E-01
   -.167E-01 0.776E-02 0.173E+04   0.103E-01 0.285E-01 -.173E+04   -.290E-03 0.134E-03 -.559E+00   0.693E-02 -.366E-01 0.184E-01
   0.138E-01 -.412E-01 0.174E+04   -.615E-02 0.726E-01 -.174E+04   -.542E-04 0.144E-03 0.417E-01   -.759E-02 -.318E-01 0.307E-01
   -.162E-01 -.642E-01 0.173E+04   0.820E-02 0.649E-01 -.173E+04   0.193E-03 0.119E-03 -.567E+00   0.750E-02 -.740E-03 0.134E-01
   0.149E-01 0.706E-01 0.174E+04   -.674E-02 -.103E+00 -.174E+04   0.216E-03 0.416E-03 0.425E-01   -.845E-02 0.323E-01 0.713E-01
   -.166E-01 0.565E-01 0.173E+04   0.879E-02 -.935E-01 -.173E+04   -.173E-03 -.209E-03 -.564E+00   0.836E-02 0.373E-01 0.448E-01
   -.551E+01 -.240E+00 0.764E+03   0.537E+01 0.276E+00 -.764E+03   0.201E+00 0.164E-02 -.174E+00   -.574E-01 -.365E-01 -.146E+00
   0.551E+01 -.234E+00 0.764E+03   -.537E+01 0.269E+00 -.764E+03   -.201E+00 0.124E-02 -.175E+00   0.573E-01 -.359E-01 -.154E+00
   -.551E+01 0.493E-01 0.764E+03   0.534E+01 -.822E-01 -.764E+03   0.198E+00 -.118E-02 -.172E+00   -.315E-01 0.342E-01 -.122E+00
   0.551E+01 0.459E-01 0.764E+03   -.535E+01 -.805E-01 -.764E+03   -.199E+00 -.356E-03 -.173E+00   0.314E-01 0.350E-01 -.131E+00
   -.555E+01 0.192E+00 0.764E+03   0.538E+01 -.194E+00 -.764E+03   0.201E+00 -.760E-03 -.178E+00   -.280E-01 0.227E-02 -.122E+00
   0.555E+01 0.187E+00 0.764E+03   -.538E+01 -.188E+00 -.764E+03   -.201E+00 -.919E-03 -.176E+00   0.279E-01 0.917E-03 -.131E+00
   -.657E-01 -.469E+00 -.159E+03   0.672E-01 0.452E+00 0.160E+03   0.337E-04 0.558E-03 -.404E-01   -.178E-02 0.169E-01 -.373E+00
   -.837E-01 -.136E+00 -.158E+03   0.861E-01 0.188E+00 0.159E+03   0.396E-05 -.826E-04 -.373E-01   -.261E-02 -.520E-01 -.382E+00
   -.664E-01 0.605E+00 -.159E+03   0.674E-01 -.640E+00 0.159E+03   0.107E-02 -.528E-03 -.391E-01   -.151E-02 0.352E-01 -.389E+00
   0.660E-01 0.791E+00 -.214E+03   -.676E-01 -.830E+00 0.214E+03   -.541E-04 0.123E-02 -.906E-01   0.183E-02 0.349E-01 -.385E+00
   0.669E-01 -.583E+00 -.214E+03   -.687E-01 0.584E+00 0.215E+03   0.414E-04 -.205E-02 -.917E-01   0.209E-02 0.262E-02 -.397E+00
   0.860E-01 -.209E+00 -.213E+03   -.892E-01 0.247E+00 0.214E+03   -.258E-04 0.176E-03 -.907E-01   0.296E-02 -.375E-01 -.402E+00
   0.193E+02 0.159E+01 -.116E+04   -.197E+02 -.158E+01 0.116E+04   0.497E+00 0.201E-03 0.300E-01   -.334E-01 -.393E-02 -.552E+00
   -.193E+02 0.148E+01 -.116E+04   0.197E+02 -.147E+01 0.116E+04   -.498E+00 0.982E-03 0.281E-01   0.339E-01 -.500E-02 -.558E+00
   0.199E+02 0.579E+00 -.116E+04   -.204E+02 -.613E+00 0.116E+04   0.500E+00 0.835E-03 0.184E-01   -.324E-01 0.324E-01 -.539E+00
   -.199E+02 0.589E+00 -.116E+04   0.203E+02 -.618E+00 0.116E+04   -.500E+00 -.101E-02 0.167E-01   0.328E-01 0.325E-01 -.545E+00
   0.195E+02 -.216E+01 -.116E+04   -.199E+02 0.219E+01 0.116E+04   0.496E+00 -.215E-02 0.226E-01   -.375E-01 -.285E-01 -.526E+00
   -.194E+02 -.206E+01 -.116E+04   0.199E+02 0.209E+01 0.116E+04   -.495E+00 -.575E-03 0.236E-01   0.381E-01 -.275E-01 -.533E+00
   -.468E+00 -.271E+01 -.196E+04   0.479E+00 0.272E+01 0.195E+04   -.698E-03 -.358E-02 0.164E+01   -.884E-02 -.321E-02 -.477E+00
   -.791E+00 -.119E+01 -.195E+04   0.798E+00 0.122E+01 0.195E+04   0.249E-02 -.311E-02 0.161E+01   -.978E-02 -.168E-01 -.495E+00
   -.460E+00 0.390E+01 -.195E+04   0.470E+00 -.393E+01 0.195E+04   0.243E-03 0.781E-02 0.164E+01   -.772E-02 0.199E-01 -.519E+00
   0.644E+00 0.869E+01 -.230E+04   -.649E+00 -.870E+01 0.231E+04   -.196E-02 -.626E-02 -.207E+01   0.862E-02 0.197E-01 -.452E+00
   0.665E+00 -.596E+01 -.231E+04   -.674E+00 0.595E+01 0.231E+04   -.207E-02 0.460E-02 -.207E+01   0.105E-01 -.270E-02 -.427E+00
   0.132E+01 -.276E+01 -.229E+04   -.133E+01 0.278E+01 0.229E+04   0.579E-03 0.243E-02 -.209E+01   0.113E-01 -.169E-01 -.444E+00
   0.168E+03 -.188E+02 -.304E+04   -.168E+03 0.188E+02 0.304E+04   -.339E+00 0.670E-02 0.450E+00   -.459E-01 -.808E-02 -.206E+00
   -.169E+03 -.162E+02 -.305E+04   0.169E+03 0.162E+02 0.305E+04   0.364E+00 -.445E-02 0.523E+00   0.460E-01 -.748E-02 -.205E+00
   0.177E+03 0.438E+01 -.306E+04   -.177E+03 -.437E+01 0.306E+04   -.353E+00 -.336E-02 0.481E+00   -.530E-01 -.380E-02 -.211E+00
   -.177E+03 0.441E+01 -.307E+04   0.177E+03 -.441E+01 0.306E+04   0.352E+00 -.200E-02 0.477E+00   0.531E-01 -.109E-02 -.209E+00
   0.164E+03 0.145E+02 -.303E+04   -.164E+03 -.146E+02 0.303E+04   -.400E+00 0.156E-01 0.593E+00   -.559E-01 0.118E-01 -.229E+00
   -.165E+03 0.119E+02 -.304E+04   0.164E+03 -.119E+02 0.304E+04   0.378E+00 0.134E-01 0.531E+00   0.561E-01 0.855E-02 -.227E+00
   -.589E+01 -.603E+01 -.353E+04   0.588E+01 0.602E+01 0.353E+04   0.271E-01 -.431E-02 0.325E+01   -.909E-02 0.129E-01 0.240E-01
   -.232E+01 -.111E+02 -.355E+04   0.231E+01 0.111E+02 0.355E+04   0.123E-01 0.581E-02 0.325E+01   -.877E-02 -.117E-01 0.416E-01
   -.231E+01 0.171E+02 -.354E+04   0.233E+01 -.171E+02 0.354E+04   -.162E-01 -.496E-02 0.324E+01   -.651E-02 -.106E-02 0.350E-01
   0.432E+02 0.366E+02 -.320E+03   -.554E+02 -.449E+02 0.320E+03   0.621E+01 0.544E+01 -.455E+00   -.914E-03 -.188E-02 0.222E-01
   -.199E+02 -.262E+02 -.298E+03   0.248E+02 0.305E+02 0.289E+03   -.392E+01 -.337E+01 0.507E+01   -.737E-03 0.143E-02 0.165E-01
   -.941E+01 -.413E+02 -.341E+03   0.114E+02 0.525E+02 0.354E+03   -.233E+01 -.532E+01 -.626E+01   0.455E-03 0.293E-02 0.252E-01
   -.315E+02 0.371E+02 -.329E+03   0.368E+02 -.423E+02 0.331E+03   -.365E+01 0.359E+01 -.264E+01   0.117E-02 -.238E-02 0.244E-01
   0.269E+02 -.426E+01 -.125E+04   -.292E+02 0.440E+01 0.125E+04   0.602E+01 -.246E+01 0.307E+01   -.826E-03 0.130E-02 0.820E-01
   -.233E+01 0.210E+01 0.162E+02   0.153E-12 -.711E-14 -.116E-10   0.236E+01 -.210E+01 -.704E+01   -.189E-01 0.130E-02 -.924E+01

 POSITION                                       TOTAL-FORCE (eV/Angst)
      0.00000      0.00000      0.00000         0.000074      0.000657      0.624113
      4.02000      0.00000      0.00000        -0.000141      0.000583      0.777759
      0.00000      2.84257      0.00000        -0.000173      0.000837      0.619248
      4.02000      2.84257      0.00000        -0.000052      0.000520      0.774212
      0.00000      5.68514      0.00000        -0.000084     -0.001527      0.617977
      4.02000      5.68514      0.00000         0.000159     -0.001122      0.775911
      2.01000      4.26385      1.42128         0.029919     -0.000273     -0.693960
      6.03000      4.26385      1.42128        -0.030286     -0.000408     -0.694131
      2.01000      1.42128      1.42128         0.029152      0.001102     -0.694363
      6.03000      1.42128      1.42128        -0.029515      0.000902     -0.695050
      2.01000      7.10642      1.42128         0.029275     -0.000926     -0.695646
      6.03000      7.10642      1.42128        -0.029310     -0.000709     -0.694582
      8.03999      8.52769      2.82825        -0.000205     -0.000028     -0.002648
      4.01999      8.52769      2.85718         0.000176     -0.000134      0.002058
      8.03999      2.84253      2.82812        -0.000061     -0.000256      0.001153
      4.01999      2.84254      2.85707        -0.000361      0.000033      0.000858
      8.03999      5.68518      2.82816        -0.000110      0.000396      0.000963
      4.01999      5.68517      2.85710         0.000316      0.000053      0.001338
      1.98341      1.42123      4.28867        -0.000014      0.000401     -0.005025
      6.05656      1.42123      4.28867        -0.000315      0.000210     -0.002279
      1.98341      4.26387      4.28859         0.000530      0.000150     -0.005246
      6.05656      4.26386      4.28859        -0.000229      0.000080     -0.004818
      1.98341      7.10645      4.28870        -0.000232     -0.000472     -0.000699
      6.05656      7.10644      4.28870        -0.000269     -0.000290     -0.002174
      4.01998      2.84255      5.65839        -0.000346      0.000252      0.000688
      4.01998      8.52770      5.65852        -0.000194      0.000009      0.001912
      4.01998      5.68514      5.65843         0.000495     -0.000417     -0.000155
      8.03998      5.68519      5.71143         0.000204     -0.003012      0.002839
      8.03998      2.84252      5.71134         0.000306      0.001882      0.002943
      8.03998      8.52767      5.71160        -0.000328      0.001044     -0.001942
      1.93233      7.10641      7.14275         0.012728      0.001993      0.002103
      6.10764      7.10641      7.14275        -0.012996      0.001293      0.001991
      1.93231      4.26384      7.14253         0.016793     -0.000562      0.001446
      6.10766      4.26385      7.14254        -0.017062      0.001936      0.000128
      1.93232      1.42128      7.14268         0.012617     -0.002189     -0.000031
      6.10764      1.42128      7.14267        -0.014473     -0.002534      0.003418
      4.01999      2.84254      8.38406         0.001233      0.003687     -0.021947
      4.01998      8.52769      8.38419        -0.000455      0.001719     -0.026878
      4.01998      5.68516      8.38409         0.001697     -0.004459     -0.019242
      8.03998      5.68517      8.75599         0.000741      0.001265     -0.001401
      8.03998      2.84253      8.75595        -0.000926     -0.001822      0.000570
      8.03998      8.52768      8.75609        -0.001800      0.001300     -0.011921
      1.98007      1.42127      9.99379         0.001987      0.013232      0.002865
      6.05989      1.42127      9.99379         0.005080      0.005296      0.011143
      1.98014      4.26384      9.99362        -0.014063     -0.002595      0.020763
      6.05984      4.26385      9.99363         0.014812     -0.001362      0.020675
      1.98004      7.10642      9.99386         0.009988     -0.010123     -0.007561
      6.05992      7.10642      9.99386        -0.002026     -0.005022      0.002385
      4.01999      8.52770     11.13486         0.007254     -0.001035      0.011374
      4.01998      2.84257     11.13482        -0.002217     -0.003718      0.005274
      4.01998      5.68513     11.13482         0.000302      0.005210      0.008657
      7.37686      7.53315     13.33904        -6.042170     -2.879320     -0.724640
      0.59099      0.03973     12.57272         0.979923      0.949439     -4.047056
      0.28392      0.19436     14.00797        -0.371916      5.857451      6.346900
      0.77475      7.45247     13.76597         1.651670     -1.606700     -0.243296
      0.08279      8.12721     13.31225         3.764901     -2.321918     -1.346975
    total drift:                                0.002966      0.000142     -0.046992

  FREE ENERGIE OF THE ION-ELECTRON SYSTEM (eV)
  free  energy   TOTEN  =      -154.10992096 eV

  energy  without entropy=     -154.11186665  energy(sigma->0) =     -154.11056953

 stress matrix after NEB project (eV)
    -14.04425      2.68040     -0.44553
      2.68040    -36.38944      2.54586
     -0.44553      2.54586      1.04551
  FORCES: max atom, RMS     8.644720    1.716773
  FORCE total and by dimension   12.847150    6.346900
  Stress total and by dimension   39.373266   36.389438